data/solutions/planning/wellformed/hard/weighting/wellformed_hard_instance67_gurobi.sol
Elapsed time: 1000.25
Nodes explored: 473022
Nodes left: 118482
Relative gap: 0.099
Upper bound: 13162167143.0
Lower bound: 13149097733
C[0]=12556.0
C[1]=12553.0
C[2]=12545.0
C[3]=12545.0
C[4]=12544.0
C[5]=12544.0
C[6]=12544.0
C[7]=12544.0
C[8]=12544.0
C[9]=12544.0
C[10]=12542.0
C[11]=12537.0
C[12]=12537.0
C[13]=12537.0
C[14]=12531.0
C[15]=12531.0
C[16]=12531.0
C[17]=12526.0
C[18]=12525.0
C[19]=12525.0
y[0]=16
y[1]=14
y[2]=10
y[3]=5
y[4]=13
y[5]=16
y[6]=14
y[7]=15
y[8]=12
y[9]=1
y[10]=6
y[11]=1
y[12]=8
y[13]=13
y[14]=4
y[15]=0
y[16]=16
y[17]=14
y[18]=11
y[19]=19
y[20]=17
y[21]=16
y[22]=16
y[23]=7
y[24]=0
y[25]=6
y[26]=16
y[27]=16
y[28]=2
y[29]=11
y[30]=0
y[31]=5
y[32]=19
y[33]=1
y[34]=3
y[35]=10
y[36]=15
y[37]=5
y[38]=13
y[39]=5
y[40]=11
y[41]=12
y[42]=1
y[43]=10
y[44]=1
y[45]=14
y[46]=3
y[47]=18
y[48]=0
y[49]=3
y[50]=3
y[51]=1
y[52]=9
y[53]=17
y[54]=19
y[55]=13
y[56]=5
y[57]=5
y[58]=2
y[59]=5
y[60]=2
y[61]=7
y[62]=14
y[63]=16
y[64]=8
y[65]=9
y[66]=12
y[67]=10
y[68]=17
y[69]=17
y[70]=10
y[71]=11
y[72]=11
y[73]=9
y[74]=19
y[75]=4
y[76]=18
y[77]=1
y[78]=3
y[79]=0
y[80]=7
y[81]=11
y[82]=9
y[83]=4
y[84]=6
y[85]=3
y[86]=14
y[87]=15
y[88]=1
y[89]=5
y[90]=6
y[91]=2
y[92]=18
y[93]=2
y[94]=1
y[95]=8
y[96]=15
y[97]=0
y[98]=8
y[99]=16
y[100]=1
y[101]=10
y[102]=2
y[103]=18
y[104]=15
y[105]=7
y[106]=8
y[107]=4
y[108]=8
y[109]=18
y[110]=18
y[111]=19
y[112]=10
y[113]=8
y[114]=18
y[115]=10
y[116]=15
y[117]=6
y[118]=1
y[119]=3
y[120]=16
y[121]=6
y[122]=18
y[123]=15
y[124]=15
y[125]=11
y[126]=6
y[127]=16
y[128]=8
y[129]=3
y[130]=14
y[131]=8
y[132]=6
y[133]=9
y[134]=3
y[135]=2
y[136]=0
y[137]=19
y[138]=9
y[139]=7
y[140]=12
y[141]=12
y[142]=14
y[143]=1
y[144]=14
y[145]=17
y[146]=15
y[147]=1
y[148]=2
y[149]=12
y[150]=0
y[151]=15
y[152]=1
y[153]=11
y[154]=13
y[155]=5
y[156]=7
y[157]=11
y[158]=5
y[159]=17
y[160]=18
y[161]=8
y[162]=1
y[163]=2
y[164]=1
y[165]=18
y[166]=5
y[167]=2
y[168]=18
y[169]=9
y[170]=2
y[171]=4
y[172]=13
y[173]=15
y[174]=11
y[175]=16
y[176]=1
y[177]=3
y[178]=1
y[179]=8
y[180]=16
y[181]=4
y[182]=18
y[183]=1
y[184]=15
y[185]=8
y[186]=1
y[187]=14
y[188]=13
y[189]=7
y[190]=17
y[191]=4
y[192]=0
y[193]=12
y[194]=17
y[195]=12
y[196]=19
y[197]=14
y[198]=17
y[199]=4
y[200]=11
y[201]=16
y[202]=6
y[203]=7
y[204]=13
y[205]=11
y[206]=2
y[207]=15
y[208]=5
y[209]=2
y[210]=6
y[211]=12
y[212]=11
y[213]=8
y[214]=14
y[215]=2
y[216]=2
y[217]=12
y[218]=18
y[219]=5
y[220]=2
y[221]=19
y[222]=16
y[223]=19
y[224]=19
y[225]=10
y[226]=4
y[227]=7
y[228]=16
y[229]=6
y[230]=5
y[231]=11
y[232]=9
y[233]=18
y[234]=7
y[235]=17
y[236]=18
y[237]=1
y[238]=10
y[239]=15
y[240]=1
y[241]=7
y[242]=7
y[243]=14
y[244]=6
y[245]=8
y[246]=10
y[247]=9
y[248]=4
y[249]=5
y[250]=7
y[251]=9
y[252]=8
y[253]=3
y[254]=2
y[255]=9
y[256]=17
y[257]=6
y[258]=19
y[259]=6
y[260]=16
y[261]=12
y[262]=9
y[263]=10
y[264]=5
y[265]=0
y[266]=8
y[267]=4
y[268]=1
y[269]=5
y[270]=6
y[271]=6
y[272]=0
y[273]=13
y[274]=4
y[275]=2
y[276]=3
y[277]=7
y[278]=3
y[279]=15
y[280]=19
y[281]=3
y[282]=15
y[283]=1
y[284]=6
y[285]=17
y[286]=5
y[287]=17
y[288]=2
y[289]=3
y[290]=19
y[291]=14
y[292]=3
y[293]=16
y[294]=16
y[295]=12
y[296]=15
y[297]=19
y[298]=5
y[299]=10
y[300]=8
y[301]=1
y[302]=9
y[303]=12
y[304]=3
y[305]=18
y[306]=13
y[307]=18
y[308]=19
y[309]=1
y[310]=19
y[311]=4
y[312]=16
y[313]=13
y[314]=1
y[315]=5
y[316]=17
y[317]=0
y[318]=1
y[319]=10
y[320]=0
y[321]=13
y[322]=11
y[323]=12
y[324]=4
y[325]=17
y[326]=2
y[327]=11
y[328]=17
y[329]=1
y[330]=1
y[331]=7
y[332]=5
y[333]=16
y[334]=14
y[335]=0
y[336]=10
y[337]=7
y[338]=18
y[339]=11
y[340]=1
y[341]=13
y[342]=16
y[343]=1
y[344]=5
y[345]=10
y[346]=18
y[347]=0
y[348]=13
y[349]=7
y[350]=17
y[351]=0
y[352]=8
y[353]=16
y[354]=2
y[355]=2
y[356]=11
y[357]=12
y[358]=17
y[359]=13
y[360]=8
y[361]=15
y[362]=12
y[363]=3
y[364]=18
y[365]=13
y[366]=8
y[367]=11
y[368]=9
y[369]=15
y[370]=18
y[371]=6
y[372]=8
y[373]=18
y[374]=4
y[375]=9
y[376]=11
y[377]=5
y[378]=6
y[379]=6
y[380]=16
y[381]=3
y[382]=13
y[383]=7
y[384]=1
y[385]=15
y[386]=18
y[387]=5
y[388]=12
y[389]=11
y[390]=18
y[391]=0
y[392]=10
y[393]=8
y[394]=18
y[395]=6
y[396]=12
y[397]=1
y[398]=3
y[399]=5
y[400]=5
y[401]=5
y[402]=18
y[403]=13
y[404]=12
y[405]=6
y[406]=10
y[407]=4
y[408]=2
y[409]=13
y[410]=10
y[411]=15
y[412]=2
y[413]=18
y[414]=2
y[415]=15
y[416]=2
y[417]=7
y[418]=15
y[419]=13
y[420]=6
y[421]=18
y[422]=10
y[423]=12
y[424]=13
y[425]=9
y[426]=14
y[427]=16
y[428]=6
y[429]=13
y[430]=15
y[431]=1
y[432]=5
y[433]=13
y[434]=10
y[435]=15
y[436]=3
y[437]=10
y[438]=14
y[439]=4
y[440]=0
y[441]=12
y[442]=9
y[443]=17
y[444]=8
y[445]=7
y[446]=14
y[447]=14
y[448]=15
y[449]=1
y[450]=12
y[451]=10
y[452]=7
y[453]=11
y[454]=19
y[455]=10
y[456]=14
y[457]=3
y[458]=3
y[459]=0
y[460]=1
y[461]=14
y[462]=18
y[463]=10
y[464]=9
y[465]=19
y[466]=8
y[467]=6
y[468]=5
y[469]=6
y[470]=1
y[471]=9
y[472]=19
y[473]=14
y[474]=6
y[475]=2
y[476]=13
y[477]=12
y[478]=13
y[479]=16
y[480]=15
y[481]=13
y[482]=16
y[483]=17
y[484]=6
y[485]=17
y[486]=11
y[487]=0
y[488]=10
y[489]=1
y[490]=12
y[491]=15
y[492]=2
y[493]=19
y[494]=0
y[495]=1
y[496]=12
y[497]=17
y[498]=4
y[499]=15
