data/solutions/planning/wellformed/hard/weighting/wellformed_hard_instance67_gurobi.log

Gurobi 6.5.2 (linux64) logging started Sun Mar  4 06:41:42 2018

Changed value of parameter LogFile to data/solutions/planning/wellformed/hard/weighting/wellformed_hard_instance67_gurobi.log
   Prev: gurobi.log  Default: 
Changed value of parameter Threads to 1
   Prev: 0  Min: 0  Max: 1024  Default: 0
Optimize a model with 540 rows, 10021 columns and 20059 nonzeros
Coefficient statistics:
  Matrix range    [1e+00, 1e+03]
  Objective range [1e+00, 5e+05]
  Bounds range    [1e+00, 1e+00]
  RHS range       [1e+00, 1e+00]
Presolve removed 3 rows and 3 columns
Presolve time: 0.03s
Presolved: 537 rows, 10018 columns, 20054 nonzeros
Variable types: 0 continuous, 10018 integer (10000 binary)
Found heuristic solution: objective 1.314836e+11

Root relaxation: objective 1.314834e+10, 870 iterations, 0.02 seconds

    Nodes    |    Current Node    |     Objective Bounds      |     Work
 Expl Unexpl |  Obj  Depth IntInf | Incumbent    BestBd   Gap | It/Node Time

     0     0 1.3148e+10    0   49 1.3148e+11 1.3148e+10  90.0%     -    0s
     0     0 1.3148e+10    0   64 1.3148e+11 1.3148e+10  90.0%     -    0s
     0     0 1.3148e+10    0   64 1.3148e+11 1.3148e+10  90.0%     -    0s
     0     0 1.3148e+10    0   68 1.3148e+11 1.3148e+10  90.0%     -    0s
     0     0 1.3148e+10    0   68 1.3148e+11 1.3148e+10  90.0%     -    0s
     0     0 1.3148e+10    0   55 1.3148e+11 1.3148e+10  90.0%     -    0s
     0     0 1.3148e+10    0   54 1.3148e+11 1.3148e+10  90.0%     -    0s
     0     0 1.3148e+10    0   63 1.3148e+11 1.3148e+10  90.0%     -    0s
     0     0 1.3148e+10    0   58 1.3148e+11 1.3148e+10  90.0%     -    1s
     0     0 1.3148e+10    0   57 1.3148e+11 1.3148e+10  90.0%     -    1s
     0     2 1.3148e+10    0   52 1.3148e+11 1.3148e+10  90.0%     -    1s
H   81    81                    2.221947e+10 1.3148e+10  40.8%   6.2    1s
H  189   189                    1.386152e+10 1.3148e+10  5.14%   4.2    1s
H  270   270                    1.386152e+10 1.3148e+10  5.14%   4.1    2s
H  423   423                    1.385470e+10 1.3148e+10  5.10%   3.8    2s
H  520   520                    1.372890e+10 1.3148e+10  4.23%   3.7    2s
H  993   993                    1.370846e+10 1.3148e+10  4.09%   7.8    4s
H 1090  1090                    1.370413e+10 1.3148e+10  4.06%   8.8    4s
H 1144  1144                    1.370412e+10 1.3148e+10  4.06%   9.2    5s
H 2269  2237                    1.361658e+10 1.3148e+10  3.44%  11.7    9s
  2279  2244 1.3184e+10 1465   54 1.3617e+10 1.3148e+10  3.44%  11.7   10s
H 2314  2154                    1.361657e+10 1.3149e+10  3.43%  14.8   11s
H 2341  2065                    1.360451e+10 1.3149e+10  3.35%  14.7   12s
  2849  2373 1.3153e+10  440   32 1.3605e+10 1.3149e+10  3.35%  12.9   15s
  3510  2814 1.3153e+10  771   27 1.3605e+10 1.3149e+10  3.35%  12.1   20s
H 4449  3312                    1.360450e+10 1.3149e+10  3.35%  12.5   23s
  4717  3492 1.3151e+10  519   25 1.3604e+10 1.3149e+10  3.35%  12.3   25s
H 4965  3558                    1.360347e+10 1.3149e+10  3.34%  12.1   26s
  5735  3986 1.3149e+10   99   30 1.3603e+10 1.3149e+10  3.34%  11.5   30s
H 5958  4041                    1.360341e+10 1.3149e+10  3.34%  12.2   30s
  6979  4718 1.3150e+10  722   28 1.3603e+10 1.3149e+10  3.34%  11.7   35s
H 7122  4725                    1.360341e+10 1.3149e+10  3.34%  11.5   35s
H 8058  5458                    1.360341e+10 1.3149e+10  3.34%  10.8   39s
  8068  5470 1.3149e+10  468   28 1.3603e+10 1.3149e+10  3.34%  10.8   40s
  9157  6559 1.3149e+10  797   26 1.3603e+10 1.3149e+10  3.34%  10.4   45s
H 9895  7181                    1.360339e+10 1.3149e+10  3.34%  10.2   47s
 10202  7426 1.3149e+10  762   25 1.3603e+10 1.3149e+10  3.34%  10.1   50s
H11255  8328                    1.355988e+10 1.3149e+10  3.03%   9.9   53s
 11769  8841 1.3149e+10  872   24 1.3560e+10 1.3149e+10  3.03%  10.0   55s
 13666 10625 1.3157e+10 1249   32 1.3560e+10 1.3149e+10  3.03%   9.6   60s
H15001 11711                    1.355988e+10 1.3149e+10  3.03%   9.4   65s
H15670 12314                    1.355988e+10 1.3149e+10  3.03%   9.4   68s
H16123 12729                    1.355908e+10 1.3149e+10  3.02%   9.3   69s
 16199 12777 1.3149e+10  873   28 1.3559e+10 1.3149e+10  3.02%   9.3   70s
 18021 14514 1.3159e+10 1282   31 1.3559e+10 1.3149e+10  3.02%   9.1   75s
H19368 15729                    1.355790e+10 1.3149e+10  3.02%   9.2   79s
 19392 15733 1.3149e+10  745   23 1.3558e+10 1.3149e+10  3.02%   9.2   80s
 20840 17112 1.3152e+10 1643   23 1.3558e+10 1.3149e+10  3.02%   9.1   85s
 22361 18514 1.3149e+10  741   29 1.3558e+10 1.3149e+10  3.02%   9.1   90s
 23949 20009 1.3149e+10 1294   32 1.3558e+10 1.3149e+10  3.02%   9.1   95s
 25541 21529 1.3281e+10  879   27 1.3558e+10 1.3149e+10  3.02%   8.9  100s
 27332 23134 1.3283e+10 1145   12 1.3558e+10 1.3149e+10  3.02%   8.7  105s
H27494 23284                    1.355790e+10 1.3149e+10  3.02%   8.7  105s
H27953 23737                    1.355790e+10 1.3149e+10  3.02%   8.7  107s
 28809 24466 1.3152e+10 1196   33 1.3558e+10 1.3149e+10  3.02%   8.7  110s
 30156 25651 1.3149e+10  824   31 1.3558e+10 1.3149e+10  3.02%   8.6  115s
H31721 27175                    1.355713e+10 1.3149e+10  3.01%   8.5  118s
 32062 27464 1.3149e+10  970   30 1.3557e+10 1.3149e+10  3.01%   8.5  120s
H33198 28567                    1.355652e+10 1.3149e+10  3.01%   8.5  123s
 33551 28917 1.3149e+10  932   27 1.3557e+10 1.3149e+10  3.01%   8.6  125s
H34564 29860                    1.355618e+10 1.3149e+10  3.00%   8.5  127s
 35100 30339 1.3177e+10 1185   31 1.3556e+10 1.3149e+10  3.00%   8.5  130s
 36691 31859 1.3149e+10  933   31 1.3556e+10 1.3149e+10  3.00%   8.5  135s
H37153 32314                    1.355592e+10 1.3149e+10  3.00%   8.4  136s
 38389 33438 infeasible  948      1.3556e+10 1.3149e+10  3.00%   8.5  140s
H38544 33550                    1.355592e+10 1.3149e+10  3.00%   8.5  140s
 39770 34556 1.3169e+10 1068   18 1.3556e+10 1.3149e+10  3.00%   8.4  145s
 41420 36016 1.3149e+10  966   28 1.3556e+10 1.3149e+10  3.00%   8.3  150s
H42368 36913                    1.354884e+10 1.3149e+10  2.95%   8.3  152s
 43328 37813 1.3149e+10  935   26 1.3549e+10 1.3149e+10  2.95%   8.3  155s
 44717 39123 1.3151e+10 1127   26 1.3549e+10 1.3149e+10  2.95%   8.3  160s
H45500 39793                    1.353316e+10 1.3149e+10  2.84%   8.3  163s
 46172 40445 1.3150e+10 1354   29 1.3533e+10 1.3149e+10  2.84%   8.3  165s
H47244 41404                    1.353315e+10 1.3149e+10  2.84%   8.2  167s
 47822 41977 1.3149e+10 1443   33 1.3533e+10 1.3149e+10  2.84%   8.2  170s
H48201 42323                    1.353312e+10 1.3149e+10  2.84%   8.2  171s
 49675 43692 1.3172e+10  840   23 1.3533e+10 1.3149e+10  2.84%   8.2  175s
H51016 44951                    1.353308e+10 1.3149e+10  2.84%   8.1  178s
H51216 38911                    1.317289e+10 1.3149e+10  0.18%   8.1  179s
 51448 39109 1.3149e+10 1006   31 1.3173e+10 1.3149e+10  0.18%   8.1  180s
 54593 41999 1.3149e+10 1184   32 1.3173e+10 1.3149e+10  0.18%   8.1  185s
 57860 45001 1.3149e+10  989   29 1.3173e+10 1.3149e+10  0.18%   8.1  190s
 60673 47641 1.3159e+10  970   27 1.3173e+10 1.3149e+10  0.18%   8.1  195s
 63535 50222 1.3168e+10 1406   24 1.3173e+10 1.3149e+10  0.18%   8.1  200s
 64956 51466 1.3168e+10  925   29 1.3173e+10 1.3149e+10  0.18%   8.0  205s
 68601 54778 1.3168e+10  946   26 1.3173e+10 1.3149e+10  0.18%   7.9  210s
 71858 57740 1.3155e+10 1116   28 1.3173e+10 1.3149e+10  0.18%   7.9  215s
 75150 60477 1.3169e+10  942   25 1.3173e+10 1.3149e+10  0.18%   7.7  220s
 78650 63644 1.3149e+10  997   26 1.3173e+10 1.3149e+10  0.18%   7.7  225s
 81577 66393 1.3171e+10 1115   31 1.3173e+10 1.3149e+10  0.18%   7.7  230s
 84840 69288 1.3149e+10 1644   25 1.3173e+10 1.3149e+10  0.18%   7.7  235s
 88545 72715 1.3149e+10  811   25 1.3173e+10 1.3149e+10  0.18%   7.7  240s
 91818 75688 1.3149e+10  813   23 1.3173e+10 1.3149e+10  0.18%   7.6  245s
 94944 78636 1.3155e+10 1400   22 1.3173e+10 1.3149e+10  0.18%   7.6  250s
 98049 81387 1.3163e+10  904   25 1.3173e+10 1.3149e+10  0.18%   7.6  255s
H99134 64870                    1.316374e+10 1.3149e+10  0.11%   7.6  257s
 100979 66601 1.3152e+10 1341   30 1.3164e+10 1.3149e+10  0.11%   7.6  260s
 104419 69799 1.3161e+10 1284   24 1.3164e+10 1.3149e+10  0.11%   7.6  265s
 108494 73427 1.3149e+10  801   22 1.3164e+10 1.3149e+10  0.11%   7.5  270s
 111494 76117 1.3149e+10  800   24 1.3164e+10 1.3149e+10  0.11%   7.5  275s
 115271 79605 1.3149e+10 1069   31 1.3164e+10 1.3149e+10  0.11%   7.4  280s
 118992 83013 1.3149e+10 1065   28 1.3164e+10 1.3149e+10  0.11%   7.4  285s
 122161 85652 1.3155e+10 1289   27 1.3164e+10 1.3149e+10  0.11%   7.4  290s
 124490 87684 1.3151e+10  972   19 1.3164e+10 1.3149e+10  0.11%   7.3  295s
 127149 89996 1.3149e+10  812   26 1.3164e+10 1.3149e+10  0.11%   7.3  300s
 129565 92231 1.3149e+10 1164   29 1.3164e+10 1.3149e+10  0.11%   7.3  305s
 132209 94436 1.3162e+10 1129   26 1.3164e+10 1.3149e+10  0.11%   7.2  310s
 134854 96708 1.3149e+10 1062   25 1.3164e+10 1.3149e+10  0.11%   7.2  315s
 136929 98136 1.3150e+10 1065   26 1.3164e+10 1.3149e+10  0.11%   7.1  320s
 138364 98676 1.3159e+10 1118   28 1.3164e+10 1.3149e+10  0.11%   7.1  325s
 139885 99087 1.3150e+10 1076   25 1.3164e+10 1.3149e+10  0.11%   7.1  330s
 141395 99853 1.3162e+10 1307   12 1.3164e+10 1.3149e+10  0.11%   7.1  335s
 142616 100664     cutoff 1219      1.3164e+10 1.3149e+10  0.11%   7.1  340s
 143675 100911 1.3149e+10 1238   12 1.3164e+10 1.3149e+10  0.11%   7.1  345s
 144864 101180 1.3149e+10 1231   12 1.3164e+10 1.3149e+10  0.11%   7.1  350s
 146875 101423 1.3149e+10 1238   11 1.3164e+10 1.3149e+10  0.11%   7.1  355s
 148688 101499 infeasible 1240      1.3164e+10 1.3149e+10  0.11%   7.1  360s
 150588 101529 1.3149e+10 1239   14 1.3164e+10 1.3149e+10  0.11%   7.0  365s
 152554 101552 1.3149e+10 1231   13 1.3164e+10 1.3149e+10  0.11%   7.0  370s
 154480 101646 1.3149e+10 1238   13 1.3164e+10 1.3149e+10  0.11%   7.0  375s
 156227 101730 1.3149e+10 1245   13 1.3164e+10 1.3149e+10  0.11%   7.0  380s
 158056 101900 1.3149e+10 1250    9 1.3164e+10 1.3149e+10  0.11%   7.0  385s
 159788 101927     cutoff 1249      1.3164e+10 1.3149e+10  0.11%   7.0  390s
 161499 102141 infeasible 1254      1.3164e+10 1.3149e+10  0.11%   7.0  395s
 163213 102296 infeasible 1243      1.3164e+10 1.3149e+10  0.11%   7.0  400s
 164990 102424 1.3149e+10 1239   13 1.3164e+10 1.3149e+10  0.11%   7.0  405s
 166838 102564 1.3149e+10 1234    9 1.3164e+10 1.3149e+10  0.11%   6.9  410s
 168554 102618 infeasible 1242      1.3164e+10 1.3149e+10  0.11%   6.9  415s
 170357 102896 1.3149e+10 1238    9 1.3164e+10 1.3149e+10  0.11%   6.9  420s
 172360 103027 1.3149e+10 1237   13 1.3164e+10 1.3149e+10  0.11%   6.9  425s
 174598 103245 1.3149e+10 1237   11 1.3164e+10 1.3149e+10  0.11%   6.9  430s
 176650 103429     cutoff 1238      1.3164e+10 1.3149e+10  0.11%   6.9  435s
 178586 103625 1.3149e+10 1248   11 1.3164e+10 1.3149e+10  0.11%   6.9  440s
 180533 103843     cutoff 1240      1.3164e+10 1.3149e+10  0.11%   6.9  445s
 182339 103881 1.3149e+10 1248   13 1.3164e+10 1.3149e+10  0.11%   6.9  450s
 184387 104160 infeasible 1234      1.3164e+10 1.3149e+10  0.11%   6.9  455s
 186547 104249 infeasible 1237      1.3164e+10 1.3149e+10  0.11%   6.8  460s
 188650 104349 1.3149e+10 1234   12 1.3164e+10 1.3149e+10  0.11%   6.8  465s
 190661 104506 infeasible 1247      1.3164e+10 1.3149e+10  0.11%   6.8  470s
 193021 104703 1.3149e+10 1243   12 1.3164e+10 1.3149e+10  0.11%   6.8  475s
 194944 104877 1.3149e+10 1246    8 1.3164e+10 1.3149e+10  0.11%   6.8  480s
 197107 104949 1.3149e+10 1251   12 1.3164e+10 1.3149e+10  0.11%   6.7  485s
 198931 105072 1.3149e+10 1244   11 1.3164e+10 1.3149e+10  0.11%   6.7  490s
 200888 105197 infeasible 1248      1.3164e+10 1.3149e+10  0.11%   6.7  495s
 202646 105374 infeasible 1247      1.3164e+10 1.3149e+10  0.11%   6.7  500s
 204535 105538     cutoff 1235      1.3164e+10 1.3149e+10  0.11%   6.7  505s
 206860 105820 1.3149e+10 1241    9 1.3164e+10 1.3149e+10  0.11%   6.7  510s
 208939 106007 1.3149e+10 1230   14 1.3164e+10 1.3149e+10  0.11%   6.7  515s
 210984 106226 1.3149e+10 1232    9 1.3164e+10 1.3149e+10  0.11%   6.6  520s
 212895 106385     cutoff 1239      1.3164e+10 1.3149e+10  0.11%   6.6  525s
 214798 106483 infeasible 1241      1.3164e+10 1.3149e+10  0.11%   6.6  530s
 216586 106600 1.3149e+10 1246    8 1.3164e+10 1.3149e+10  0.11%   6.6  535s
 218491 106704 1.3149e+10 1241   12 1.3164e+10 1.3149e+10  0.11%   6.6  540s
 220430 106880 infeasible 1245      1.3164e+10 1.3149e+10  0.11%   6.6  545s
 222322 107099 1.3149e+10 1253   11 1.3164e+10 1.3149e+10  0.11%   6.6  550s
 224193 107096 1.3149e+10 1240   12 1.3164e+10 1.3149e+10  0.11%   6.6  555s
 226134 107176 1.3149e+10 1236   10 1.3164e+10 1.3149e+10  0.11%   6.6  560s
 228141 107233 1.3149e+10 1246   10 1.3164e+10 1.3149e+10  0.11%   6.6  565s
 230302 107403 1.3149e+10 1250   11 1.3164e+10 1.3149e+10  0.11%   6.6  570s
 232532 107604     cutoff 1243      1.3164e+10 1.3149e+10  0.11%   6.5  575s
 234675 107665 1.3149e+10 1245    9 1.3164e+10 1.3149e+10  0.11%   6.5  580s
 236706 107722 1.3149e+10 1237    8 1.3164e+10 1.3149e+10  0.11%   6.5  585s
 238808 107764 1.3149e+10 1251    8 1.3164e+10 1.3149e+10  0.11%   6.5  590s
 240844 107996     cutoff 1247      1.3164e+10 1.3149e+10  0.11%   6.5  595s
 243197 108157 1.3149e+10 1247   10 1.3164e+10 1.3149e+10  0.11%   6.5  600s
 245426 108312 infeasible 1253      1.3164e+10 1.3149e+10  0.11%   6.5  605s
 247481 108458 1.3149e+10 1253   14 1.3164e+10 1.3149e+10  0.11%   6.4  610s
 249455 108505 1.3149e+10 1250   12 1.3164e+10 1.3149e+10  0.11%   6.4  615s
 251540 108671 infeasible 1245      1.3164e+10 1.3149e+10  0.11%   6.4  620s
 253240 108695 infeasible 1246      1.3164e+10 1.3149e+10  0.11%   6.4  625s
 255218 108883 infeasible 1248      1.3164e+10 1.3149e+10  0.11%   6.4  630s
 257375 109088 1.3149e+10 1241   14 1.3164e+10 1.3149e+10  0.11%   6.4  635s
 259349 109361 infeasible 1239      1.3164e+10 1.3149e+10  0.11%   6.4  640s
 261487 109502 infeasible 1239      1.3164e+10 1.3149e+10  0.11%   6.4  645s
 263746 109873 1.3149e+10 1248   18 1.3164e+10 1.3149e+10  0.11%   6.4  650s
 265637 109860 infeasible 1239      1.3164e+10 1.3149e+10  0.11%   6.4  655s
H266467 106693                    1.316217e+10 1.3149e+10  0.10%   6.4  657s
 268121 106818 1.3149e+10 1235   13 1.3162e+10 1.3149e+10  0.10%   6.4  660s
 271197 107024 infeasible 1260      1.3162e+10 1.3149e+10  0.10%   6.3  665s
 274268 107238 infeasible 1245      1.3162e+10 1.3149e+10  0.10%   6.3  670s
 277564 107523 1.3149e+10 1243   14 1.3162e+10 1.3149e+10  0.10%   6.3  675s
 280427 107683 1.3149e+10 1240   10 1.3162e+10 1.3149e+10  0.10%   6.3  680s
 283517 107949 1.3149e+10 1248   11 1.3162e+10 1.3149e+10  0.10%   6.3  685s
 286725 108170 1.3149e+10 1243   11 1.3162e+10 1.3149e+10  0.10%   6.3  690s
 289368 108257     cutoff 1246      1.3162e+10 1.3149e+10  0.10%   6.3  695s
 292552 108537 1.3149e+10 1230   11 1.3162e+10 1.3149e+10  0.10%   6.3  700s
 295853 108834 1.3149e+10 1234   11 1.3162e+10 1.3149e+10  0.10%   6.3  705s
 298677 109052 1.3149e+10 1252   14 1.3162e+10 1.3149e+10  0.10%   6.3  710s
 301451 109160 infeasible 1244      1.3162e+10 1.3149e+10  0.10%   6.3  715s
 304410 109403 infeasible 1241      1.3162e+10 1.3149e+10  0.10%   6.3  720s
 307245 109573 infeasible 1244      1.3162e+10 1.3149e+10  0.10%   6.2  725s
 310255 109683 1.3149e+10 1240   14 1.3162e+10 1.3149e+10  0.10%   6.2  730s
 313116 109902 1.3149e+10 1252   12 1.3162e+10 1.3149e+10  0.10%   6.2  735s
 316007 110055 1.3149e+10 1249   16 1.3162e+10 1.3149e+10  0.10%   6.2  740s
 319033 110208 1.3149e+10 1245   12 1.3162e+10 1.3149e+10  0.10%   6.2  745s
 322185 110395 1.3149e+10 1248   13 1.3162e+10 1.3149e+10  0.10%   6.2  750s
 325272 110636 1.3149e+10 1245    4 1.3162e+10 1.3149e+10  0.10%   6.2  755s
 328524 110702 1.3149e+10 1240    9 1.3162e+10 1.3149e+10  0.10%   6.2  760s
 331312 110748 infeasible 1243      1.3162e+10 1.3149e+10  0.10%   6.2  765s
 334025 110803 infeasible 1264      1.3162e+10 1.3149e+10  0.10%   6.2  770s
 336621 110776 1.3149e+10 1237   10 1.3162e+10 1.3149e+10  0.10%   6.2  775s
 339761 110882 1.3149e+10 1254   13 1.3162e+10 1.3149e+10  0.10%   6.2  780s
 342899 110971 1.3149e+10 1238   16 1.3162e+10 1.3149e+10  0.10%   6.1  785s
 346018 111149 infeasible 1246      1.3162e+10 1.3149e+10  0.10%   6.1  790s
 349006 111260 1.3149e+10 1239    8 1.3162e+10 1.3149e+10  0.10%   6.1  795s
 352225 111382 infeasible 1246      1.3162e+10 1.3149e+10  0.10%   6.1  800s
 355063 111544 1.3149e+10 1253   10 1.3162e+10 1.3149e+10  0.10%   6.1  805s
 358126 111708 1.3149e+10 1251    6 1.3162e+10 1.3149e+10  0.10%   6.1  810s
 361428 112060 1.3149e+10 1245    6 1.3162e+10 1.3149e+10  0.10%   6.1  815s
 364460 112248     cutoff 1239      1.3162e+10 1.3149e+10  0.10%   6.1  820s
 367596 112483 1.3149e+10 1240   11 1.3162e+10 1.3149e+10  0.10%   6.1  825s
 370387 112590 1.3149e+10 1248    8 1.3162e+10 1.3149e+10  0.10%   6.1  830s
 373347 112752 1.3149e+10 1249    9 1.3162e+10 1.3149e+10  0.10%   6.1  835s
 376470 112857     cutoff 1245      1.3162e+10 1.3149e+10  0.10%   6.1  840s
 379600 113029 1.3149e+10 1238   12 1.3162e+10 1.3149e+10  0.10%   6.1  845s
 382663 113157 infeasible 1243      1.3162e+10 1.3149e+10  0.10%   6.0  850s
 385608 113338 1.3149e+10 1242    7 1.3162e+10 1.3149e+10  0.10%   6.0  855s
 388615 113456 infeasible 1241      1.3162e+10 1.3149e+10  0.10%   6.0  860s
 391520 113637 1.3149e+10 1242    9 1.3162e+10 1.3149e+10  0.10%   6.0  865s
 394659 113796 1.3149e+10 1240   10 1.3162e+10 1.3149e+10  0.10%   6.0  870s
 397699 113876 infeasible 1248      1.3162e+10 1.3149e+10  0.10%   6.0  875s
 400637 114151 1.3149e+10 1239   12 1.3162e+10 1.3149e+10  0.10%   6.0  880s
 403515 114324 1.3149e+10 1240   12 1.3162e+10 1.3149e+10  0.10%   6.0  885s
 406527 114513 1.3149e+10 1243    9 1.3162e+10 1.3149e+10  0.10%   6.0  890s
 409557 114650 infeasible 1246      1.3162e+10 1.3149e+10  0.10%   6.0  895s
 412550 114757     cutoff 1243      1.3162e+10 1.3149e+10  0.10%   6.0  900s
 415608 114902 infeasible 1258      1.3162e+10 1.3149e+10  0.10%   6.0  905s
 418621 115041 infeasible 1246      1.3162e+10 1.3149e+10  0.10%   6.0  910s
 421726 115121 1.3149e+10 1242   13 1.3162e+10 1.3149e+10  0.10%   6.0  915s
 424771 115198 1.3149e+10 1250    8 1.3162e+10 1.3149e+10  0.10%   6.0  920s
 427901 115286 infeasible 1253      1.3162e+10 1.3149e+10  0.10%   6.0  925s
 431425 115288 1.3149e+10 1251    9 1.3162e+10 1.3149e+10  0.10%   6.0  930s
 434600 115383 1.3149e+10 1253    9 1.3162e+10 1.3149e+10  0.10%   6.0  935s
 437761 115515 1.3149e+10 1246   10 1.3162e+10 1.3149e+10  0.10%   6.0  940s
 440709 115590 1.3149e+10 1233   13 1.3162e+10 1.3149e+10  0.10%   6.0  945s
 444033 115933 1.3149e+10 1245    7 1.3162e+10 1.3149e+10  0.10%   6.0  950s
 447169 116022 infeasible 1246      1.3162e+10 1.3149e+10  0.10%   5.9  955s
 450410 116440 infeasible 1243      1.3162e+10 1.3149e+10  0.10%   5.9  960s
 453710 116790 1.3149e+10 1239   12 1.3162e+10 1.3149e+10  0.10%   6.0  965s
 457115 117183 1.3149e+10 1245   10 1.3162e+10 1.3149e+10  0.10%   6.0  970s
 460308 117394 1.3149e+10 1232    9 1.3162e+10 1.3149e+10  0.10%   6.0  975s
 463610 117686 1.3149e+10 1247   11 1.3162e+10 1.3149e+10  0.10%   6.0  980s
 466848 117991 infeasible 1248      1.3162e+10 1.3149e+10  0.10%   6.0  985s
 470017 118187 infeasible 1244      1.3162e+10 1.3149e+10  0.10%   5.9  990s
 473022 118482 1.3149e+10 1235   12 1.3162e+10 1.3149e+10  0.10%   5.9  995s

Cutting planes:
  MIR: 3
  Flow cover: 1

Explored 476220 nodes (2837588 simplex iterations) in 1000.01 seconds
Thread count was 1 (of 8 available processors)

Time limit reached
Best objective 1.316216714300e+10, best bound 1.314909773300e+10, gap 0.0993%
